GLPSOL--GLPK LP/MIP Solver 5.0
Parameter(s) specified in the command line:
 --lp ../modeles/15_379.lp --log 15_379.log
Reading problem data from '../modeles/15_379.lp'...
5746 rows, 11400 columns, 39870 non-zeros
5685 integer variables, all of which are binary
17167 lines were read
GLPK Integer Optimizer 5.0
5746 rows, 11400 columns, 39870 non-zeros
5685 integer variables, all of which are binary
Preprocessing...
5610 constraint coefficient(s) were reduced
5746 rows, 11385 columns, 39855 non-zeros
5685 integer variables, all of which are binary
Scaling...
 A: min|aij| =  2.785e-05  max|aij| =  4.000e+00  ratio =  1.436e+05
GM: min|aij| =  5.137e-02  max|aij| =  1.947e+01  ratio =  3.790e+02
EQ: min|aij| =  2.639e-03  max|aij| =  1.000e+00  ratio =  3.790e+02
2N: min|aij| =  1.782e-03  max|aij| =  1.768e+00  ratio =  9.923e+02
Constructing initial basis...
Size of triangular part is 5746
Solving LP relaxation...
GLPK Simplex Optimizer 5.0
5746 rows, 11385 columns, 39855 non-zeros
      0: obj =   3.000000000e+01 inf =   7.450e+01 (31)
Perturbing LP to avoid stalling [199]...
    314: obj =   4.997946255e-01 inf =   0.000e+00 (0)
Removing LP perturbation [979]...
*   979: obj =  -3.872869943e+00 inf =   8.475e-15 (0) 1
OPTIMAL LP SOLUTION FOUND
Integer optimization begins...
Long-step dual simplex will be used
+   979: mip =     not found yet >=              -inf        (1; 0)
+  1041: >>>>>  -3.872869943e+00 >=  -3.872869943e+00   0.0% (62; 0)
+  1041: mip =  -3.872869943e+00 >=     tree is empty   0.0% (0; 123)
INTEGER OPTIMAL SOLUTION FOUND
Time used:   1.1 secs
Memory used: 16.4 Mb (17225473 bytes)
